POSCAR file written by Ovito 3.14.1
1
14.9347038843 -9.24e-14 0.0
-7.4673519418 12.933832962 0.0
0.0 0.0 27.0
B N 
35 36 
Cartesian
0.0 0.0 13.5
2.489117314 -1.54e-14 13.5
4.9782346281 -3.08e-14 13.5
7.4673519421 -4.62e-14 13.5
9.9564692562 -6.16e-14 13.5
12.4455865702 -7.7e-14 13.5
-1.244558657 2.155638827 13.5
1.2445586571 2.155638827 13.5
3.7336759711 2.155638827 13.5
6.2227932852 2.155638827 13.5
8.7119105992 2.155638827 13.5
11.2010279133 2.155638827 13.5
-2.4891173139 4.311277654 13.5
9.9893426864e-11 4.311277654 13.5
2.4891173141 4.311277654 13.5
4.9782346282 4.311277654 13.5
7.4673519422 4.311277654 13.5
9.9564692563 4.311277654 13.5
-3.7336759709 6.466916481 13.5
-1.2445586569 6.466916481 13.5
3.7336759712 6.466916481 13.5
6.2227932853 6.466916481 13.5
8.7119105993 6.466916481 13.5
-4.9782346279 8.622555308 13.5
-2.4891173138 8.622555308 13.5
1.9994583766e-10 8.622555308 13.5
2.4891173142 8.622555308 13.5
4.9782346283 8.622555308 13.5
7.4673519423 8.622555308 13.5
-6.2227932849 10.778194135 13.5
-3.7336759708 10.778194135 13.5
-1.2445586568 10.778194135 13.5
1.2445586573 10.778194135 13.5
3.7336759713 10.778194135 13.5
6.2227932854 10.778194135 13.5
1.2445586941 0.7185462975 13.5
3.7336760081 0.7185462975 13.5
6.2227933222 0.7185462975 13.5
8.7119106362 0.7185462975 13.5
11.2010279503 0.7185462975 13.5
13.6901452643 0.7185462975 13.5
3.7090108984e-08 2.8741851245 13.5
2.4891173511 2.8741851245 13.5
4.9782346652 2.8741851245 13.5
7.4673519792 2.8741851245 13.5
9.9564692933 2.8741851245 13.5
12.4455866073 2.8741851245 13.5
-1.2445586199 5.0298239515 13.5
1.2445586942 5.0298239515 13.5
3.7336760082 5.0298239515 13.5
6.2227933223 5.0298239515 13.5
8.7119106363 5.0298239515 13.5
11.2010279504 5.0298239515 13.5
-2.4891172769 7.1854627785 13.5
3.7190002189e-08 7.1854627785 13.5
2.4891173512 7.1854627785 13.5
4.9782346653 7.1854627785 13.5
7.4673519793 7.1854627785 13.5
9.9564692934 7.1854627785 13.5
-3.7336759338 9.3411016055 13.5
-1.2445586198 9.3411016055 13.5
1.2445586943 9.3411016055 13.5
3.7336760083 9.3411016055 13.5
6.2227933224 9.3411016055 13.5
8.7119106364 9.3411016055 13.5
-4.9782345908 11.4967404325 13.5
-2.4891172768 11.4967404325 13.5
3.7289895616e-08 11.4967404325 13.5
2.4891173513 11.4967404325 13.5
4.9782346654 11.4967404325 13.5
7.4673519794 11.4967404325 13.5
