POSCAR file written by Ovito 3.14.1
1
15.0300156753 2.124e-12 0.0
-7.5150078373 13.0163753943 0.0
0.0 0.0 27.0
B N 
35 36 
Cartesian
0.0 0.0 13.5
2.5050026125 3.54e-13 13.5
5.0100052251 7.08e-13 13.5
7.5150078376 1.062e-12 13.5
10.0200104502 1.416e-12 13.5
12.5250130627 1.77e-12 13.5
-1.2525013062 2.169395899 13.5
1.2525013063 2.169395899 13.5
3.7575039189 2.169395899 13.5
6.2625065314 2.169395899 13.5
8.767509144 2.169395899 13.5
11.2725117565 2.169395899 13.5
-2.5050026124 4.3387917981 13.5
1.0178569099e-10 4.3387917981 13.5
2.5050026126 4.3387917981 13.5
5.0100052252 4.3387917981 13.5
7.5150078377 4.3387917981 13.5
10.0200104503 4.3387917981 13.5
-3.7575039187 6.5081876971 13.5
-1.2525013061 6.5081876971 13.5
3.757503919 6.5081876971 13.5
6.2625065315 6.5081876971 13.5
8.7675091441 6.5081876971 13.5
-5.0100052249 8.6775835962 13.5
-2.5050026123 8.6775835962 13.5
2.0373125409e-10 8.6775835962 13.5
2.5050026128 8.6775835962 13.5
5.0100052253 8.6775835962 13.5
7.5150078378 8.6775835962 13.5
-6.2625065311 10.8469794952 13.5
-3.7575039186 10.8469794952 13.5
-1.252501306 10.8469794952 13.5
1.2525013065 10.8469794952 13.5
3.7575039191 10.8469794952 13.5
6.2625065316 10.8469794952 13.5
1.2525013436 0.7231319883 13.5
3.7575039561 0.7231319883 13.5
6.2625065686 0.7231319883 13.5
8.7675091812 0.7231319883 13.5
11.2725117937 0.7231319883 13.5
13.7775144063 0.7231319883 13.5
3.732765097e-08 2.8925278874 13.5
2.5050026499 2.8925278874 13.5
5.0100052624 2.8925278874 13.5
7.515007875 2.8925278874 13.5
10.0200104875 2.8925278874 13.5
12.5250131001 2.8925278874 13.5
-1.2525012689 5.0619237864 13.5
1.2525013437 5.0619237864 13.5
3.7575039562 5.0619237864 13.5
6.2625065687 5.0619237864 13.5
8.7675091813 5.0619237864 13.5
11.2725117938 5.0619237864 13.5
-2.5050025751 7.2313196855 13.5
3.7429437327e-08 7.2313196855 13.5
2.50500265 7.2313196855 13.5
5.0100052625 7.2313196855 13.5
7.5150078751 7.2313196855 13.5
10.0200104876 7.2313196855 13.5
-3.7575038813 9.4007155845 13.5
-1.2525012688 9.4007155845 13.5
1.2525013438 9.4007155845 13.5
3.7575039563 9.4007155845 13.5
6.2625065688 9.4007155845 13.5
8.7675091814 9.4007155845 13.5
-5.0100051876 11.5701114835 13.5
-2.505002575 11.5701114835 13.5
3.7531221686e-08 11.5701114835 13.5
2.5050026501 11.5701114835 13.5
5.0100052626 11.5701114835 13.5
7.5150078752 11.5701114835 13.5
