B  N (taken from lbo-LDA/POSCAR)        
    1.000000000000000     
     2.5050026125475719    0.0000000000003540    0.0000000000000000
    -1.2525013062228665    2.1693958990455413    0.0000000000000000
     0.0000000000000000    0.0000000000000000   27.0000000000000000
  B               N             
     1     1
Direct
  0.0000000000000000  0.0000000000000000  0.5000000000000000
  0.6666666866036621  0.3333333434590955  0.5000000000000000
 
  0.00000000E+00  0.00000000E+00  0.00000000E+00
  0.00000000E+00  0.00000000E+00  0.00000000E+00
