B  N 
 1.0000000000000000
    30.0600313505999992    0.0000000000042480    0.0000000000000000
   -15.0300156746999996   26.0327507884999996    0.0000000000000000
     0.0000000000000000    0.0000000000000000   18.0000000000000000
 B   N  
 143 144
Direct
  0.0000000000000000  0.0000000000000000  0.5000000000000000
  0.0833333333316700  0.0000000000000000  0.5000000000000000
  0.1666666666666667  0.0000000000000000  0.5000000000000000
  0.2499999999983367  0.0000000000000000  0.5000000000000000
  0.3333333333333334  0.0000000000000000  0.5000000000000000
  0.4166666666650033  0.0000000000000000  0.5000000000000000
  0.5000000000000000 -0.0000000000000000  0.5000000000000000
  0.5833333333316700  0.0000000000000000  0.5000000000000000
  0.6666666666666667  0.0000000000000000  0.5000000000000000
  0.7499999999983367  0.0000000000000000  0.5000000000000000
  0.8333333333333335 -0.0000000000000000  0.5000000000000000
  0.9166666666650035  0.0000000000000000  0.5000000000000000
  0.0000000000000314  0.0833333333317328  0.5000000000000000
  0.0833333333316946  0.0833333333317192  0.5000000000000000
  0.1666666666666845  0.0833333333317056  0.5000000000000000
  0.2499999999983477  0.0833333333316920  0.5000000000000000
  0.3333333333333375  0.0833333333316784  0.5000000000000000
  0.4166666666650007  0.0833333333316648  0.5000000000000000
  0.4999999999999907  0.0833333333316512  0.5000000000000000
  0.5833333333316538  0.0833333333316376  0.5000000000000000
  0.6666666666666438  0.0833333333316240  0.5000000000000000
  0.7499999999983069  0.0833333333316104  0.5000000000000000
  0.8333333333332970  0.0833333333315968  0.5000000000000000
  0.9166666666649601  0.0833333333315832  0.5000000000000000
  0.0000000000019834  0.1666666666673069  0.5000000000000000
  0.0833333333337078  0.1666666666672933  0.5000000000000000
  0.1666666666653099  0.1666666666672797  0.5000000000000000
  0.2500000000002998  0.1666666666672661  0.5000000000000000
  0.3333333333319629  0.1666666666672525  0.5000000000000000
  0.4166666666669528  0.1666666666672389  0.5000000000000000
  0.4999999999986160  0.1666666666672253  0.5000000000000000
  0.5833333333336059  0.1666666666672117  0.5000000000000000
  0.6666666666652691  0.1666666666671981  0.5000000000000000
  0.7500000000002590  0.1666666666671845  0.5000000000000000
  0.8333333333319222  0.1666666666671709  0.5000000000000000
  0.9166666666669121  0.1666666666671573  0.5000000000000000
 -0.0000000000013118  0.2499999999990397  0.5000000000000000
  0.0833333333336780  0.2499999999990261  0.5000000000000000
  0.1666666666653413  0.2499999999990125  0.5000000000000000
  0.2500000000003311  0.2499999999989989  0.5000000000000000
  0.3333333333319943  0.2499999999989853  0.5000000000000000
  0.4166666666669842  0.2499999999989717  0.5000000000000000
  0.4999999999986475  0.2499999999989581  0.5000000000000000
  0.5833333333336372  0.2499999999989445  0.5000000000000000
  0.6666666666653004  0.2499999999989309  0.5000000000000000
  0.7500000000002904  0.2499999999989173  0.5000000000000000
  0.8333333333319536  0.2499999999989037  0.5000000000000000
  0.9166666666669435  0.2499999999988901  0.5000000000000000
  0.0000000000006402  0.3333333333346138  0.5000000000000000
  0.0833333333356301  0.3333333333346001  0.5000000000000000
  0.1666666666674157  0.3333333333345866  0.5000000000000000
  0.2500000000022832  0.3333333333345730  0.5000000000000000
  0.3333333333339463  0.3333333333345593  0.5000000000000000
  0.4166666666656096  0.3333333333345458  0.5000000000000000
  0.5000000000005995  0.3333333333345322  0.5000000000000000
  0.5833333333322627  0.3333333333345186  0.5000000000000000
  0.6666666666672525  0.3333333333345050  0.5000000000000000
  0.7499999999989158  0.3333333333344914  0.5000000000000000
  0.8333333333339056  0.3333333333344778  0.5000000000000000
  0.9166666666655687  0.3333333333344641  0.5000000000000000
  0.0000000000006716  0.4166666666663465  0.5000000000000000
  0.0833333333323348  0.4166666666663330  0.5000000000000000
  0.1666666666673247  0.4166666666663194  0.5000000000000000
  0.2499999999989879  0.4166666666663057  0.5000000000000000
  0.3333333333339777  0.4166666666662922  0.5000000000000000
  0.5000000000006309  0.4166666666662650  0.5000000000000000
  0.5833333333322941  0.4166666666662514  0.5000000000000000
  0.6666666666672840  0.4166666666662378  0.5000000000000000
  0.7499999999989472  0.4166666666662242  0.5000000000000000
  0.8333333333339370  0.4166666666662106  0.5000000000000000
  0.9166666666656001  0.4166666666661969  0.5000000000000000
  0.0000000000026237  0.5000000000019207  0.5000000000000000
  0.0833333333342869  0.5000000000019071  0.5000000000000000
  0.1666666666692767  0.5000000000018935  0.5000000000000000
  0.2500000000011235  0.5000000000018799  0.5000000000000000
  0.3333333333359298  0.5000000000018663  0.5000000000000000
  0.4166666666675930  0.5000000000018526  0.5000000000000000
  0.4999999999992563  0.5000000000018391  0.5000000000000000
  0.5833333333342461  0.5000000000018255  0.5000000000000000
  0.6666666666659093  0.5000000000018119  0.5000000000000000
  0.7500000000008992  0.5000000000017982  0.5000000000000000
  0.8333333333325625  0.5000000000017847  0.5000000000000000
  0.9166666666675524  0.5000000000017711  0.5000000000000000
 -0.0000000000006716  0.5833333333336534  0.5000000000000000
  0.0833333333343182  0.5833333333336398  0.5000000000000000
  0.1666666666659815  0.5833333333336262  0.5000000000000000
  0.2500000000009714  0.5833333333336127  0.5000000000000000
  0.3333333333326345  0.5833333333335990  0.5000000000000000
  0.4166666666676245  0.5833333333335855  0.5000000000000000
  0.4999999999992876  0.5833333333335718  0.5000000000000000
  0.5833333333342775  0.5833333333335583  0.5000000000000000
  0.6666666666659407  0.5833333333335446  0.5000000000000000
  0.7500000000009307  0.5833333333335311  0.5000000000000000
  0.8333333333325937  0.5833333333335174  0.5000000000000000
  0.9166666666675837  0.5833333333335039  0.5000000000000000
  0.0000000000012804  0.6666666666692276  0.5000000000000000
  0.0833333333362703  0.6666666666692139  0.5000000000000000
  0.1666666666679335  0.6666666666692003  0.5000000000000000
  0.2500000000029234  0.6666666666691868  0.5000000000000000
  0.3333333333348313  0.6666666666691732  0.5000000000000000
  0.4166666666695765  0.6666666666691595  0.5000000000000000
  0.5000000000012397  0.6666666666691460  0.5000000000000000
  0.5833333333362296  0.6666666666691323  0.5000000000000000
  0.6666666666678926  0.6666666666691187  0.5000000000000000
  0.7499999999995560  0.6666666666691052  0.5000000000000000
  0.8333333333345460  0.6666666666690916  0.5000000000000000
  0.9166666666662091  0.6666666666690780  0.5000000000000000
  0.0000000000013118  0.7500000000009603  0.5000000000000000
  0.0833333333329750  0.7500000000009468  0.5000000000000000
  0.1666666666679649  0.7500000000009331  0.5000000000000000
  0.2499999999996281  0.7500000000009195  0.5000000000000000
  0.3333333333346181  0.7500000000009061  0.5000000000000000
  0.4166666666662812  0.7500000000008924  0.5000000000000000
  0.5000000000012712  0.7500000000008789  0.5000000000000000
  0.5833333333329344  0.7500000000008652  0.5000000000000000
  0.6666666666679242  0.7500000000008515  0.5000000000000000
  0.7499999999995874  0.7500000000008380  0.5000000000000000
  0.8333333333345773  0.7500000000008243  0.5000000000000000
  0.9166666666662405  0.7500000000008108  0.5000000000000000
  0.0000000000032639  0.8333333333365345  0.5000000000000000
  0.0833333333349271  0.8333333333365209  0.5000000000000000
  0.1666666666699170  0.8333333333365073  0.5000000000000000
  0.2500000000015801  0.8333333333364936  0.5000000000000000
  0.3333333333365701  0.8333333333364801  0.5000000000000000
  0.4166666666685390  0.8333333333364664  0.5000000000000000
  0.5000000000032231  0.8333333333364528  0.5000000000000000
  0.5833333333348865  0.8333333333364393  0.5000000000000000
  0.6666666666698762  0.8333333333364257  0.5000000000000000
  0.7500000000015394  0.8333333333364120  0.5000000000000000
  0.8333333333332026  0.8333333333363985  0.5000000000000000
  0.9166666666681925  0.8333333333363848  0.5000000000000000
 -0.0000000000000314  0.9166666666682671  0.5000000000000000
  0.0833333333349584  0.9166666666682535  0.5000000000000000
  0.1666666666666217  0.9166666666682400  0.5000000000000000
  0.2500000000016115  0.9166666666682264  0.5000000000000000
  0.3333333333332748  0.9166666666682127  0.5000000000000000
  0.4166666666682647  0.9166666666681992  0.5000000000000000
  0.4999999999999278  0.9166666666681855  0.5000000000000000
  0.5833333333349178  0.9166666666681720  0.5000000000000000
  0.6666666666665809  0.9166666666681583  0.5000000000000000
  0.7500000000015707  0.9166666666681448  0.5000000000000000
  0.8333333333332340  0.9166666666681312  0.5000000000000000
  0.9166666666682239  0.9166666666681176  0.5000000000000000
  0.0555555572183163  0.0277777786210441  0.5000000000000000
  0.1388888905499795  0.0277777786210305  0.5000000000000000
  0.2222222238816427  0.0277777786210169  0.5000000000000000
  0.3055555572166325  0.0277777786210033  0.5000000000000000
  0.3888888905482957  0.0277777786209897  0.5000000000000000
  0.4722222238832856  0.0277777786209761  0.5000000000000000
  0.5555555572149489  0.0277777786209625  0.5000000000000000
  0.6388888905499387  0.0277777786209489  0.5000000000000000
  0.7222222238816020  0.0277777786209353  0.5000000000000000
  0.8055555572165919  0.0277777786209217  0.5000000000000000
  0.8888888905482550  0.0277777786209081  0.5000000000000000
  0.9722222238832450  0.0277777786208945  0.5000000000000000
  0.0555555572178594  0.1111111119566182  0.5000000000000000
  0.1388888905519315  0.1111111119566046  0.5000000000000000
  0.2222222238835947  0.1111111119565910  0.5000000000000000
  0.3055555572185846  0.1111111119565774  0.5000000000000000
  0.3888888905502478  0.1111111119565638  0.5000000000000000
  0.4722222238852377  0.1111111119565502  0.5000000000000000
  0.5555555572169009  0.1111111119565366  0.5000000000000000
  0.6388888905518907  0.1111111119565230  0.5000000000000000
  0.7222222238835539  0.1111111119565094  0.5000000000000000
  0.8055555572185439  0.1111111119564958  0.5000000000000000
  0.8888888905502070  0.1111111119564822  0.5000000000000000
  0.9722222238851970  0.1111111119564686  0.5000000000000000
  0.0555555572169730  0.1944444452883510  0.5000000000000000
  0.1388888905519630  0.1944444452883374  0.5000000000000000
  0.2222222238836261  0.1944444452883238  0.5000000000000000
  0.3055555572152893  0.1944444452883102  0.5000000000000000
  0.3888888905502792  0.1944444452882966  0.5000000000000000
  0.4722222238819424  0.1944444452882830  0.5000000000000000
  0.5555555572169323  0.1944444452882694  0.5000000000000000
  0.6388888905485954  0.1944444452882558  0.5000000000000000
  0.7222222238835855  0.1944444452882422  0.5000000000000000
  0.8055555572152486  0.1944444452882286  0.5000000000000000
  0.8888888905502385  0.1944444452882150  0.5000000000000000
  0.9722222238819016  0.1944444452882014  0.5000000000000000
  0.0555555572189251  0.2777777786239251  0.5000000000000000
  0.1388888905515673  0.2777777786239115  0.5000000000000000
  0.2222222238855782  0.2777777786238979  0.5000000000000000
  0.3055555572172414  0.2777777786238843  0.5000000000000000
  0.3888888905522312  0.2777777786238707  0.5000000000000000
  0.4722222238838945  0.2777777786238571  0.5000000000000000
  0.5555555572188844  0.2777777786238435  0.5000000000000000
  0.6388888905505475  0.2777777786238299  0.5000000000000000
  0.7222222238855376  0.2777777786238163  0.5000000000000000
  0.8055555572172007  0.2777777786238027  0.5000000000000000
  0.8888888905521906  0.2777777786237891  0.5000000000000000
  0.9722222238838537  0.2777777786237755  0.5000000000000000
  0.0555555572189565  0.3611111119556579  0.5000000000000000
  0.1388888905506197  0.3611111119556443  0.5000000000000000
  0.2222222238856096  0.3611111119556307  0.5000000000000000
  0.3055555572172727  0.3611111119556171  0.5000000000000000
  0.3888888905489360  0.3611111119556035  0.5000000000000000
  0.4722222238839259  0.3611111119555899  0.5000000000000000
  0.5555555572155890  0.3611111119555763  0.5000000000000000
  0.6388888905505790  0.3611111119555627  0.5000000000000000
  0.7222222238822422  0.3611111119555491  0.5000000000000000
  0.8055555572172320  0.3611111119555355  0.5000000000000000
  0.8888888905488952  0.3611111119555219  0.5000000000000000
  0.9722222238838852  0.3611111119555083  0.5000000000000000
  0.0555555572156612  0.4444444452873907  0.5000000000000000
  0.1388888905506511  0.4444444452873770  0.5000000000000000
  0.2222222238833544  0.4444444452873634  0.5000000000000000
  0.3055555572173042  0.4444444452873499  0.5000000000000000
  0.3888888905489674  0.4444444452873362  0.5000000000000000
  0.4722222238839572  0.4444444452873226  0.5000000000000000
  0.5555555572156206  0.4444444452873091  0.5000000000000000
  0.6388888905506104  0.4444444452872955  0.5000000000000000
  0.7222222238822735  0.4444444452872818  0.5000000000000000
  0.8055555572172635  0.4444444452872683  0.5000000000000000
  0.8888888905489266  0.4444444452872547  0.5000000000000000
  0.9722222238839167  0.4444444452872410  0.5000000000000000
  0.0555555572176133  0.5277777786229647  0.5000000000000000
  0.1388888905526031  0.5277777786229512  0.5000000000000000
  0.2222222238842663  0.5277777786229375  0.5000000000000000
  0.3055555572192561  0.5277777786229239  0.5000000000000000
  0.3888888905509195  0.5277777786229103  0.5000000000000000
  0.4722222238859093  0.5277777786228968  0.5000000000000000
  0.5555555572175727  0.5277777786228832  0.5000000000000000
  0.6388888905492358  0.5277777786228696  0.5000000000000000
  0.7222222238842255  0.5277777786228559  0.5000000000000000
  0.8055555572158888  0.5277777786228424  0.5000000000000000
  0.8888888905508787  0.5277777786228287  0.5000000000000000
  0.9722222238825419  0.5277777786228152  0.5000000000000000
  0.0555555572176447  0.6111111119546976  0.5000000000000000
  0.1388888905493079  0.6111111119546840  0.5000000000000000
  0.2222222238842978  0.6111111119546704  0.5000000000000000
  0.3055555572170622  0.6111111119546567  0.5000000000000000
  0.3888888905509508  0.6111111119546432  0.5000000000000000
  0.4722222238826140  0.6111111119546295  0.5000000000000000
  0.5555555572176040  0.6111111119546160  0.5000000000000000
  0.6388888905492672  0.6111111119546024  0.5000000000000000
  0.7222222238842571  0.6111111119545888  0.5000000000000000
  0.8055555572159202  0.6111111119545751  0.5000000000000000
  0.8888888905509101  0.6111111119545616  0.5000000000000000
  0.9722222238825733  0.6111111119545480  0.5000000000000000
  0.0555555572195968  0.6944444452902717  0.5000000000000000
  0.1388888905512599  0.6944444452902581  0.5000000000000000
  0.2222222238862498  0.6944444452902444  0.5000000000000000
  0.3055555572179130  0.6944444452902309  0.5000000000000000
  0.3888888905529029  0.6944444452902172  0.5000000000000000
  0.4722222238845661  0.6944444452902038  0.5000000000000000
  0.5555555572195561  0.6944444452901901  0.5000000000000000
  0.6388888905512192  0.6944444452901765  0.5000000000000000
  0.7222222238828824  0.6944444452901629  0.5000000000000000
  0.8055555572178722  0.6944444452901493  0.5000000000000000
  0.8888888905495353  0.6944444452901356  0.5000000000000000
  0.9722222238845253  0.6944444452901221  0.5000000000000000
  0.0555555572163015  0.7777777786220046  0.5000000000000000
  0.1388888905512914  0.7777777786219909  0.5000000000000000
  0.2222222238829545  0.7777777786219773  0.5000000000000000
  0.3055555572179444  0.7777777786219637  0.5000000000000000
  0.3888888905507701  0.7777777786219501  0.5000000000000000
  0.4722222238845974  0.7777777786219364  0.5000000000000000
  0.5555555572162607  0.7777777786219229  0.5000000000000000
  0.6388888905512506  0.7777777786219093  0.5000000000000000
  0.7222222238829138  0.7777777786218957  0.5000000000000000
  0.8055555572179037  0.7777777786218821  0.5000000000000000
  0.8888888905495669  0.7777777786218685  0.5000000000000000
  0.9722222238845567  0.7777777786218549  0.5000000000000000
  0.0555555572182534  0.8611111119575785  0.5000000000000000
  0.1388888905532433  0.8611111119575650  0.5000000000000000
  0.2222222238849066  0.8611111119575513  0.5000000000000000
  0.3055555572198965  0.8611111119575378  0.5000000000000000
  0.3888888905515597  0.8611111119575242  0.5000000000000000
  0.4722222238865496  0.8611111119575106  0.5000000000000000
  0.5555555572182128  0.8611111119574970  0.5000000000000000
  0.6388888905532026  0.8611111119574834  0.5000000000000000
  0.7222222238848658  0.8611111119574697  0.5000000000000000
  0.8055555572165292  0.8611111119574563  0.5000000000000000
  0.8888888905515190  0.8611111119574426  0.5000000000000000
  0.9722222238831821  0.8611111119574290  0.5000000000000000
  0.0555555572182849  0.9444444452893113  0.5000000000000000
  0.1388888905499481  0.9444444452892977  0.5000000000000000
  0.2222222238849379  0.9444444452892841  0.5000000000000000
  0.3055555572166011  0.9444444452892704  0.5000000000000000
  0.3888888905515910  0.9444444452892569  0.5000000000000000
  0.4722222238844779  0.9444444452892433  0.5000000000000000
  0.5555555572182441  0.9444444452892297  0.5000000000000000
  0.6388888905499073  0.9444444452892161  0.5000000000000000
  0.7222222238848972  0.9444444452892025  0.5000000000000000
  0.8055555572165604  0.9444444452891888  0.5000000000000000
  0.8888888905515503  0.9444444452891753  0.5000000000000000
  0.9722222238832134  0.9444444452891617  0.5000000000000000
