B  N (taken from lbo-LDA/POSCAR)        
    1.000000000000000     
     2.5122454795970617    0.0000000000005209    0.0000000000000000
    -1.2561227397476289    2.1756684059068605    0.0000000000000000
     0.0000000000000000    0.0000000000000000   27.0000000000000000
  B               N             
     1     1
Direct
  1.0000000000000000  1.0000000000000000  0.5000000000000000
  0.6666666866036621  0.3333333434590955  0.5000000000000000
 
  0.00000000E+00  0.00000000E+00  0.00000000E+00
  0.00000000E+00  0.00000000E+00  0.00000000E+00
