generated by phonopy
   1.0
    14.9347038842831683   -0.0000000000000924    0.0000000000000000
    -7.4673519418417449   12.9338329619826240    0.0000000000000000
     0.0000000000000000    0.0000000000000000   27.0000000000000000
B N
  36   36
Direct
  0.0000000000000000  0.0000000000000000  0.5000000000000000
  0.1666666666666667  0.0000000000000000  0.5000000000000000
  0.3333333333333333  0.0000000000000000  0.5000000000000000
  0.5000000000000000  0.0000000000000000  0.5000000000000000
  0.6666666666666666  0.0000000000000000  0.5000000000000000
  0.8333333333333333  0.0000000000000000  0.5000000000000000
  0.0000000000000000  0.1666666666666667  0.5000000000000000
  0.1666666666666667  0.1666666666666667  0.5000000000000000
  0.3333333333333333  0.1666666666666667  0.5000000000000000
  0.5000000000000000  0.1666666666666667  0.5000000000000000
  0.6666666666666666  0.1666666666666667  0.5000000000000000
  0.8333333333333333  0.1666666666666667  0.5000000000000000
  0.0000000000000000  0.3333333333333333  0.5000000000000000
  0.1666666666666667  0.3333333333333333  0.5000000000000000
  0.3333333333333333  0.3333333333333333  0.5000000000000000
  0.5000000000000000  0.3333333333333333  0.5000000000000000
  0.6666666666666666  0.3333333333333333  0.5000000000000000
  0.8333333333333333  0.3333333333333333  0.5000000000000000
  0.0000000000000000  0.5000000000000000  0.5000000000000000
  0.1666666666666667  0.5000000000000000  0.5000000000000000
  0.3333333333333333  0.5000000000000000  0.5000000000000000
  0.5000000000000000  0.5000000000000000  0.5000000000000000
  0.6666666666666666  0.5000000000000000  0.5000000000000000
  0.8333333333333333  0.5000000000000000  0.5000000000000000
  0.0000000000000000  0.6666666666666666  0.5000000000000000
  0.1666666666666667  0.6666666666666666  0.5000000000000000
  0.3333333333333333  0.6666666666666666  0.5000000000000000
  0.5000000000000000  0.6666666666666666  0.5000000000000000
  0.6666666666666666  0.6666666666666666  0.5000000000000000
  0.8333333333333333  0.6666666666666666  0.5000000000000000
  0.0000000000000000  0.8333333333333333  0.5000000000000000
  0.1666666666666667  0.8333333333333333  0.5000000000000000
  0.3333333333333333  0.8333333333333333  0.5000000000000000
  0.5000000000000000  0.8333333333333333  0.5000000000000000
  0.6666666666666666  0.8333333333333333  0.5000000000000000
  0.8333333333333333  0.8333333333333333  0.5000000000000000
  0.1111111144339437  0.0555555572431826  0.5000000000000000
  0.2777777811006104  0.0555555572431826  0.5000000000000000
  0.4444444477672770  0.0555555572431826  0.5000000000000000
  0.6111111144339436  0.0555555572431826  0.5000000000000000
  0.7777777811006104  0.0555555572431826  0.5000000000000000
  0.9444444477672770  0.0555555572431826  0.5000000000000000
  0.1111111144339437  0.2222222239098492  0.5000000000000000
  0.2777777811006104  0.2222222239098492  0.5000000000000000
  0.4444444477672770  0.2222222239098492  0.5000000000000000
  0.6111111144339436  0.2222222239098492  0.5000000000000000
  0.7777777811006104  0.2222222239098492  0.5000000000000000
  0.9444444477672770  0.2222222239098492  0.5000000000000000
  0.1111111144339437  0.3888888905765159  0.5000000000000000
  0.2777777811006104  0.3888888905765159  0.5000000000000000
  0.4444444477672770  0.3888888905765159  0.5000000000000000
  0.6111111144339436  0.3888888905765159  0.5000000000000000
  0.7777777811006104  0.3888888905765159  0.5000000000000000
  0.9444444477672770  0.3888888905765159  0.5000000000000000
  0.1111111144339437  0.5555555572431825  0.5000000000000000
  0.2777777811006104  0.5555555572431825  0.5000000000000000
  0.4444444477672770  0.5555555572431825  0.5000000000000000
  0.6111111144339436  0.5555555572431825  0.5000000000000000
  0.7777777811006104  0.5555555572431825  0.5000000000000000
  0.9444444477672770  0.5555555572431825  0.5000000000000000
  0.1111111144339437  0.7222222239098492  0.5000000000000000
  0.2777777811006104  0.7222222239098492  0.5000000000000000
  0.4444444477672770  0.7222222239098492  0.5000000000000000
  0.6111111144339436  0.7222222239098492  0.5000000000000000
  0.7777777811006104  0.7222222239098492  0.5000000000000000
  0.9444444477672770  0.7222222239098492  0.5000000000000000
  0.1111111144339437  0.8888888905765159  0.5000000000000000
  0.2777777811006104  0.8888888905765159  0.5000000000000000
  0.4444444477672770  0.8888888905765159  0.5000000000000000
  0.6111111144339436  0.8888888905765159  0.5000000000000000
  0.7777777811006104  0.8888888905765159  0.5000000000000000
  0.9444444477672770  0.8888888905765159  0.5000000000000000
