B  N (taken from lbo-LDA/POSCAR)        
    1.000000000000000     
     2.4891173140471947   -0.0000000000000154    0.0000000000000000
    -1.2445586569736242    2.1556388269971039    0.0000000000000000
     0.0000000000000000    0.0000000000000000   27.0000000000000000
  B               N             
     1     1
Direct
  0.0000000000000000  0.0000000000000000  0.5000000000000000
  0.6666666866036621  0.3333333434590955  0.5000000000000000
 
  0.00000000E+00  0.00000000E+00  0.00000000E+00
  0.00000000E+00  0.00000000E+00  0.00000000E+00
