POSCAR file written by Ovito 3.14.1
1
15.0734728776 3.1254e-12 0.0
-7.5367364385 13.0540104354 0.0
0.0 0.0 27.0
B N 
35 36 
Cartesian
1.2561227398 2.1756684059 13.5
3.7683682194 2.1756684059 13.5
6.280613699 2.1756684059 13.5
8.7928591786 2.1756684059 13.5
11.3051046582 2.1756684059 13.5
-1.2561227397 2.1756684059 13.5
1.0175060794e-10 4.3513368118 13.5
2.5122454797 4.3513368118 13.5
5.0244909593 4.3513368118 13.5
7.5367364389 4.3513368118 13.5
10.0489819185 4.3513368118 13.5
-2.5122454795 4.3513368118 13.5
-1.2561227396 6.5270052177 13.5
3.7683682195 6.5270052177 13.5
6.2806136991 6.5270052177 13.5
8.7928591787 6.5270052177 13.5
-3.7683682192 6.5270052177 13.5
-2.5122454794 8.7026736236 13.5
2.0366108799e-10 8.7026736236 13.5
2.5122454798 8.7026736236 13.5
5.0244909594 8.7026736236 13.5
7.536736439 8.7026736236 13.5
-5.024490959 8.7026736236 13.5
-3.7683682191 10.8783420295 13.5
-1.2561227395 10.8783420295 13.5
1.2561227401 10.8783420295 13.5
3.7683682197 10.8783420295 13.5
6.2806136992 10.8783420295 13.5
-6.2806136987 10.8783420295 13.5
2.5122454796 5.209e-13 13.5
5.0244909592 1.0418e-12 13.5
7.5367364388 1.5627e-12 13.5
10.0489819184 2.0836e-12 13.5
12.561227398 2.6045e-12 13.5
0.0 0.0 13.5
1.2561227772 0.725222824 13.5
3.7683682568 0.725222824 13.5
6.2806137364 0.725222824 13.5
8.792859216 0.725222824 13.5
11.3051046956 0.725222824 13.5
13.8173501752 0.725222824 13.5
3.7435359035e-08 2.9008912299 13.5
2.512245517 2.9008912299 13.5
5.0244909966 2.9008912299 13.5
7.5367364762 2.9008912299 13.5
10.0489819558 2.9008912299 13.5
12.5612274354 2.9008912299 13.5
-1.2561227023 5.0765596358 13.5
1.2561227773 5.0765596358 13.5
3.7683682569 5.0765596358 13.5
6.2806137365 5.0765596358 13.5
8.7928592161 5.0765596358 13.5
11.3051046957 5.0765596358 13.5
-2.5122454421 7.2522280417 13.5
3.7537109421e-08 7.2522280417 13.5
2.5122455171 7.2522280417 13.5
5.0244909967 7.2522280417 13.5
7.5367364763 7.2522280417 13.5
10.0489819559 7.2522280417 13.5
-3.7683681818 9.4278964476 13.5
-1.2561227022 9.4278964476 13.5
1.2561227774 9.4278964476 13.5
3.768368257 9.4278964476 13.5
6.2806137366 9.4278964476 13.5
8.7928592162 9.4278964476 13.5
-5.0244909216 11.6035648535 13.5
-2.512245442 11.6035648535 13.5
3.7638860029e-08 11.6035648535 13.5
2.5122455172 11.6035648535 13.5
5.0244909968 11.6035648535 13.5
7.5367364764 11.6035648535 13.5
