POSCAR file written by OVITO Basic 3.15.0
1
22.5450235129 3.186e-12 0.0
-11.272511756 19.5245630914 0.0
0.0 0.0 27.0
B N 
80 81 
Direct
0.0 0.0 0.5
0.1111111111 0.0 0.5
0.2222222222 0.0 0.5
0.3333333333 -6.3108872418e-30 0.5
0.4444444444 0.0 0.5
0.5555555556 0.0 0.5
0.6666666667 -1.2621774484e-29 0.5
0.7777777778 0.0 0.5
0.8888888889 0.0 0.5
0.0 0.1111111111 0.5
0.1111111111 0.1111111111 0.5
0.2222222222 0.1111111111 0.5
0.3333333333 0.1111111111 0.5
0.4444444444 0.1111111111 0.5
0.5555555556 0.1111111111 0.5
0.6666666667 0.1111111111 0.5
0.7777777778 0.1111111111 0.5
0.8888888889 0.1111111111 0.5
0.0 0.2222222222 0.5
0.1111111111 0.2222222222 0.5
0.2222222222 0.2222222222 0.5
0.3333333333 0.2222222222 0.5
0.4444444444 0.2222222222 0.5
0.5555555556 0.2222222222 0.5
0.6666666667 0.2222222222 0.5
0.7777777778 0.2222222222 0.5
0.8888888889 0.2222222222 0.5
2.7755575616e-17 0.3333333333 0.5
0.1111111111 0.3333333333 0.5
0.2222222222 0.3333333333 0.5
0.3333333333 0.3333333333 0.5
0.4444444444 0.3333333333 0.5
0.5555555556 0.3333333333 0.5
0.6666666667 0.3333333333 0.5
0.7777777778 0.3333333333 0.5
0.8888888889 0.3333333333 0.5
0.0 0.4444444444 0.5
0.1111111111 0.4444444444 0.5
0.2222222222 0.4444444444 0.5
0.3333333333 0.4444444444 0.5
0.4444444444 0.4444444444 0.5
0.6666666667 0.4444444444 0.5
0.7777777778 0.4444444444 0.5
0.8888888889 0.4444444444 0.5
5.5511151231e-17 0.5555555556 0.5
0.1111111111 0.5555555556 0.5
0.2222222222 0.5555555556 0.5
0.3333333333 0.5555555556 0.5
0.4444444444 0.5555555556 0.5
0.5555555556 0.5555555556 0.5
0.6666666667 0.5555555556 0.5
0.7777777778 0.5555555556 0.5
0.8888888889 0.5555555556 0.5
5.5511151231e-17 0.6666666667 0.5
0.1111111111 0.6666666667 0.5
0.2222222222 0.6666666667 0.5
0.3333333333 0.6666666667 0.5
0.4444444444 0.6666666667 0.5
0.5555555556 0.6666666667 0.5
0.6666666667 0.6666666667 0.5
0.7777777778 0.6666666667 0.5
0.8888888889 0.6666666667 0.5
5.5511151231e-17 0.7777777778 0.5
0.1111111111 0.7777777778 0.5
0.2222222222 0.7777777778 0.5
0.3333333333 0.7777777778 0.5
0.4444444444 0.7777777778 0.5
0.5555555556 0.7777777778 0.5
0.6666666667 0.7777777778 0.5
0.7777777778 0.7777777778 0.5
0.8888888889 0.7777777778 0.5
0.0 0.8888888889 0.5
0.1111111111 0.8888888889 0.5
0.2222222222 0.8888888889 0.5
0.3333333333 0.8888888889 0.5
0.4444444444 0.8888888889 0.5
0.5555555556 0.8888888889 0.5
0.6666666667 0.8888888889 0.5
0.7777777778 0.8888888889 0.5
0.8888888889 0.8888888889 0.5
0.5555555556 0.4444444444 0.5
0.0740740763 0.0370370382 0.5
0.1851851874 0.0370370382 0.5
0.2962962985 0.0370370382 0.5
0.4074074096 0.0370370382 0.5
0.5185185207 0.0370370382 0.5
0.6296296318 0.0370370382 0.5
0.740740743 0.0370370382 0.5
0.8518518541 0.0370370382 0.5
0.9629629652 0.0370370382 0.5
0.0740740763 0.1481481493 0.5
0.1851851874 0.1481481493 0.5
0.2962962985 0.1481481493 0.5
0.4074074096 0.1481481493 0.5
0.5185185207 0.1481481493 0.5
0.6296296318 0.1481481493 0.5
0.740740743 0.1481481493 0.5
0.8518518541 0.1481481493 0.5
0.9629629652 0.1481481493 0.5
0.0740740763 0.2592592604 0.5
0.1851851874 0.2592592604 0.5
0.2962962985 0.2592592604 0.5
0.4074074096 0.2592592604 0.5
0.5185185207 0.2592592604 0.5
0.6296296318 0.2592592604 0.5
0.740740743 0.2592592604 0.5
0.8518518541 0.2592592604 0.5
0.9629629652 0.2592592604 0.5
0.0740740763 0.3703703715 0.5
0.1851851874 0.3703703715 0.5
0.2962962985 0.3703703715 0.5
0.4074074096 0.3703703715 0.5
0.5185185207 0.3703703715 0.5
0.6296296318 0.3703703715 0.5
0.740740743 0.3703703715 0.5
0.8518518541 0.3703703715 0.5
0.9629629652 0.3703703715 0.5
0.0740740763 0.4814814826 0.5
0.1851851874 0.4814814826 0.5
0.2962962985 0.4814814826 0.5
0.4074074096 0.4814814826 0.5
0.6296296318 0.4814814826 0.5
0.740740743 0.4814814826 0.5
0.8518518541 0.4814814826 0.5
0.9629629652 0.4814814826 0.5
0.0740740763 0.5925925937 0.5
0.1851851874 0.5925925937 0.5
0.2962962985 0.5925925937 0.5
0.4074074096 0.5925925937 0.5
0.5185185207 0.5925925937 0.5
0.6296296318 0.5925925937 0.5
0.740740743 0.5925925937 0.5
0.8518518541 0.5925925937 0.5
0.9629629652 0.5925925937 0.5
0.0740740763 0.7037037048 0.5
0.1851851874 0.7037037048 0.5
0.2962962985 0.7037037048 0.5
0.4074074096 0.7037037048 0.5
0.5185185207 0.7037037048 0.5
0.6296296318 0.7037037048 0.5
0.740740743 0.7037037048 0.5
0.8518518541 0.7037037048 0.5
0.9629629652 0.7037037048 0.5
0.0740740763 0.8148148159 0.5
0.1851851874 0.8148148159 0.5
0.2962962985 0.8148148159 0.5
0.4074074096 0.8148148159 0.5
0.5185185207 0.8148148159 0.5
0.6296296318 0.8148148159 0.5
0.740740743 0.8148148159 0.5
0.8518518541 0.8148148159 0.5
0.9629629652 0.8148148159 0.5
0.0740740763 0.9259259271 0.5
0.1851851874 0.9259259271 0.5
0.2962962985 0.9259259271 0.5
0.4074074096 0.9259259271 0.5
0.5185185207 0.9259259271 0.5
0.6296296318 0.9259259271 0.5
0.740740743 0.9259259271 0.5
0.8518518541 0.9259259271 0.5
0.9629629652 0.9259259271 0.5
