 System = hexagonal Boron Nitride - relaxation
 GGA = PS
 ISTART = 0
 ICHARG = 2
 PREC = Accurate
 ENCUT = 500
 ADDGRID = .TRUE.
 ALGO = Fast
 EDIFF = 1E-07
 NELM = 100
 NELMIN = 2
 NELMDL = -5
 EDIFFG = -0.001
 NSW = 200
 IBRION = 2
 ISIF = 4
 POTIM = 0.1
 ISMEAR = 0
 SIGMA = 0.01
 LCHARG= .TRUE.
 LWAVE =.TRUE.
 NPAR = 1
 KPAR = 4
