 System = hexagonal Boron Nitride
 GGA = PS
 ISTART = 1
 ICHARG = 1
 PREC = Accurate
 ENCUT = 500
 ADDGRID = .TRUE.
 ALGO = Fast
 EDIFF = 1E-08
 NELM = 100
 NELMIN = 2
 NELMDL = -5
 EDIFFG = -0.001
 NSW = 0
 IBRION = 2
 ISIF = 4
 POTIM = 0.1
 ISMEAR = 0
 SIGMA = 0.001
 LCHARG= .FALSE.
 LWAVE =.FALSE.
 NBANDS = 64
 NEDOS = 50001
 OMEGAMAX = 50
 LOPTICS = .TRUE.
 NPAR = 1
 KPAR = 4
