 # [DEEPSEEK 2026-05-28] PBEsol functional — GGA = PS added
 System = hexagonal Boron Nitride
 GGA = PS
 Staring parameters
 ISTART = 1
 ICHARG = 1
 LSCALAPACK = .FALSE.

 Electronic relaxation
 PREC = Accurate
 ENCUT = 500
 ADDGRID = .TRUE.
 ALGO = Fast
 EDIFF = 1E-08
 NELM = 100
 NELMIN = 2
 NELMDL = -5

 Ionic relaxation
 EDIFFG = -0.001
 NSW = 0
 IBRION = 2
 ISIF = 4
 POTIM = 0.1

 DOS related values
 ISMEAR = 0
 SIGMA = 0.001
 
 LCHARG= .FALSE.
 LWAVE =.FALSE.

 Dynamic dielectric
 NBANDS = 64
 NEDOS = 50001
 OMEGAMAX = 50
 LOPTICS = .TRUE.  

 NPAR = 1
 KPAR = 4
