B  N (taken from lbo-LDA/POSCAR)
   1.00000000000000
     2.4897837638999998    0.0000000000000000    0.0000000000000000
    -1.2448918819000001    2.1562159895000002    0.0000000000000000
     0.0000000000000000    0.0000000000000000   27.0000000000000000
   B    N 
     1     1
Direct
  0.0000000000000000  0.0000000000000000  0.500000000000000000
  0.6666666866036621  0.3333333434590955  0.500000000000000000
