generated by phonopy
   1.0
    22.5450235128999985    0.0000000000031860    0.0000000000000000
   -11.2725117560000001   19.5245630914000010    0.0000000000000000
     0.0000000000000000    0.0000000000000000   18.0000000000000000
B N
  80   81
Direct
  0.0000658877600694  0.9999896504431771  0.5000000000000000
  0.1111710118649749  0.0000058425568498  0.5000000000000000
  0.2222255372614958  0.0000066300775683  0.5000000000000000
  0.3332792751328717  0.0000058425568498  0.5000000000000000
  0.4443682071285382  0.9999896504431771  0.5000000000000000
  0.5554829327363899  0.9999636885909099  0.5000000000000000
  0.6666158161773591  0.9999398630355006  0.5000000000000000
  0.7777684913035722  0.9999398630355006  0.5000000000000000
  0.8889252002999511  0.9999636885909099  0.5000000000000000
  0.0001047357876531  0.1111298638702370  0.5000000000000000
  0.1112582276810570  0.1111647828922032  0.5000000000000000
  0.2223378479675260  0.1111915032725457  0.5000000000000000
  0.3332980997504361  0.1111915032725315  0.5000000000000000
  0.4443509996565413  0.1111647828921464  0.5000000000000000
  0.5554695725279718  0.1111298638701446  0.5000000000000000
  0.6666158161771530  0.1111203975824431  0.5000000000000000
  0.7777777777770680  0.1111111111087055  0.5000000000000000
  0.8889490258551330  0.1111203975824076  0.5000000000000000
  0.0001366595341165  0.2222905519887219  0.5000000000000000
  0.1113020227563072  0.2222951305982702  0.5000000000000000
  0.2225192485741552  0.2224271842476374  0.5000000000000000
  0.3334975794680772  0.2225507144907310  0.5000000000000000
  0.4443523801144575  0.2224271842476019  0.5000000000000000
  0.5554375522874360  0.2222951305981920  0.5000000000000000
  0.6665983368999790  0.2222905519886153  0.5000000000000000
  0.7777684913057606  0.2222730727134452  0.5000000000000000
  0.8889490258531080  0.2222730727134310  0.5000000000000000
  0.0001047357854718  0.3334193163580221  0.5000000000000000
  0.1113020227560727  0.3334513366009524  0.5000000000000000
  0.2224787526932087  0.3334615985680088  0.5000000000000000
  0.3342794320865957  0.3345339871607385  0.5000000000000000
  0.4446989995195660  0.3345339871607172  0.5000000000000000
  0.5554272903202092  0.3334615985679590  0.5000000000000000
  0.6665937582902675  0.3334513366008600  0.5000000000000000
  0.7777590250179244  0.3334193163579013  0.5000000000000000
  0.8889252002975424  0.3334059561496608  0.5000000000000000
  0.0000658877601476  0.4445206817624721  0.5000000000000000
  0.1112582276857252  0.4445378892342629  0.5000000000000000
  0.2225192485765781  0.4445365087743003  0.5000000000000000
  0.3342794320890045  0.4441898893690284  0.5000000000000000
  0.5543549017254331  0.4441898893689929  0.5000000000000000
  0.6664617046432805  0.4445365087742293  0.5000000000000000
  0.7777241059939113  0.4445378892341563  0.5000000000000000
  0.8888992384476839  0.4445206817623300  0.5000000000000000
  0.0000268072343241  0.5556091700232249  0.5000000000000000
  0.1111710118648897  0.5556096137533851  0.5000000000000000
  0.2223378479676042  0.5555907891356150  0.5000000000000000
  0.3334975794657467  0.5553913094203682  0.5000000000000000
  0.4446989995218184  0.5546094568016788  0.5000000000000000
  0.5543549017252839  0.5546094568016646  0.5000000000000000
  0.6663381744000234  0.5553913094203113  0.5000000000000000
  0.7776973856133983  0.5555907891355297  0.5000000000000000
  0.8888830463338619  0.5556096137532572  0.5000000000000000
  0.0000111935141570  0.6666896066081786  0.5000000000000000
  0.1111228575394377  0.6666896066081572  0.5000000000000000
  0.2222255372638122  0.6666633516295496  0.5000000000000000
  0.3332980997531646  0.6665510409233347  0.5000000000000000
  0.4443523801189694  0.6663696403146595  0.5000000000000000
  0.5554272903204366  0.6664101361954423  0.5000000000000000
  0.6664617046411062  0.6663696403146240  0.5000000000000000
  0.7776973856158070  0.6665510409232637  0.5000000000000000
  0.8888822588111186  0.6666633516294430  0.5000000000000000
  0.0000111935095740  0.7777660313492347  0.5000000000000000
  0.1111111111113132  0.7777777777771888  0.5000000000000000
  0.2221992822806360  0.7777660313491992  0.5000000000000000
  0.3332792751350246  0.7777178770213174  0.5000000000000000
  0.4443509996544381  0.7776306612050577  0.5000000000000000
  0.5554375522873578  0.7775868661322802  0.5000000000000000
  0.6665937582903385  0.7775868661322589  0.5000000000000000
  0.7777241059960145  0.7776306612050009  0.5000000000000000
  0.8888830463316806  0.7777178770212251  0.5000000000000000
  0.0000268072345514  0.8888620816567645  0.5000000000000000
  0.1111228575416972  0.8888776953793188  0.5000000000000000
  0.2221992822830448  0.8888776953793046  0.5000000000000000
  0.3332797188676079  0.8888620816567077  0.5000000000000000
  0.4443682071289787  0.8888230011310263  0.5000000000000000
  0.5554695725327111  0.8887841531032719  0.5000000000000000
  0.6665983369023096  0.8887522293591957  0.5000000000000000
  0.7777590250204042  0.8887841531032363  0.5000000000000000
  0.8888992384477621  0.8888230011309481  0.5000000000000000
  0.0740365714915580  0.0369249354016356  0.5000000000000000
  0.1851116810889321  0.0368710042923347  0.5000000000000000
  0.2962037709518408  0.0368710042923134  0.5000000000000000
  0.4073328116629352  0.0369249354015788  0.5000000000000000
  0.5184700609763748  0.0369790238299573  0.5000000000000000
  0.6296092859648801  0.0370268652208371  0.5000000000000000
  0.7407426890738448  0.0370409303992445  0.5000000000000000
  0.8518620270088217  0.0370268652208016  0.5000000000000000
  0.9629534106019920  0.0369790238298863  0.5000000000000000
  0.0739783550426312  0.1480114381200614  0.5000000000000000
  0.1850753918449948  0.1479417186111352  0.5000000000000000
  0.2961766212625822  0.1479087947767192  0.5000000000000000
  0.4073107745190053  0.1479417186110926  0.5000000000000000
  0.5184775308270690  0.1480114381199903  0.5000000000000000
  0.6296218652026601  0.1481083486072032  0.5000000000000000
  0.7407426890762535  0.1481462031561904  0.5000000000000000
  0.8518479618328086  0.1481462031561691  0.5000000000000000
  0.9629309311574009  0.1481083486071535  0.5000000000000000
  0.0739590509084138  0.2592017476938365  0.5000000000000000
  0.1849050200668778  0.2590172262227713  0.5000000000000000
  0.2960266544868994  0.2589090882130816  0.5000000000000000
  0.4073268814746271  0.2589090882130674  0.5000000000000000
  0.5185566539087513  0.2590172262227144  0.5000000000000000
  0.6296871445338323  0.2592017476937512  0.5000000000000000
  0.7407805436251057  0.2592670270294856  0.5000000000000000
  0.8518620270066475  0.2592796062648352  0.5000000000000000
  0.9629309311572517  0.2592670270294500  0.5000000000000000
  0.0739783550436615  0.3704113614055739  0.5000000000000000
  0.1849050200661530  0.3703322383237283  0.5000000000000000
  0.2955123899289448  0.3699784172054701  0.5000000000000000
  0.4057519582534959  0.3670594687585396  0.5000000000000000
  0.5189104750293972  0.3699784172054346  0.5000000000000000
  0.6298716660072924  0.3703322383236572  0.5000000000000000
  0.7408774541147490  0.3704113614054673  0.5000000000000000
  0.8519098683999572  0.3704188312537314  0.5000000000000000
  0.9629534106066603  0.3704188312537172  0.5000000000000000
  0.0740365714916291  0.4815560805670006  0.5000000000000000
  0.1850753918426571  0.4815781177133250  0.5000000000000000
  0.2960266544891518  0.4815620107530990  0.5000000000000000
  0.4057519582533395  0.4831369339766247  0.5000000000000000
  0.5218294234717233  0.4831369339766034  0.5000000000000000
  0.6299798040168043  0.4815620107530492  0.5000000000000000
  0.7409471736190704  0.4815781177132327  0.5000000000000000
  0.8519639568281936  0.4815560805668798  0.5000000000000000
  0.9629961979084366  0.4815479480684206  0.5000000000000000
  0.0740678903879509  0.5926603577182661  0.5000000000000000
  0.1851116810888540  0.5926851212733488  0.5000000000000000
  0.2961766212614880  0.5927122709650015  0.5000000000000000
  0.4073268814767303  0.5928622377405138  0.5000000000000000
  0.5189104750246579  0.5933765023008556  0.5000000000000000
  0.6299798040166551  0.5928622377404783  0.5000000000000000
  0.7409800974533162  0.5927122709649233  0.5000000000000000
  0.8520178879373315  0.5926851212732422  0.5000000000000000
  0.9630369150786893  0.5926603577181169  0.5000000000000000
  0.0740915604778494  0.7037386732072464  0.5000000000000000
  0.1851372380912727  0.7037516541410791  0.5000000000000000
  0.2962037709541785  0.7037772111410747  0.5000000000000000
  0.4073107745189343  0.7038135003873993  0.5000000000000000
  0.5185566539088294  0.7039838721653391  0.5000000000000000
  0.6298716660093956  0.7039838721653249  0.5000000000000000
  0.7409471736213228  0.7038135003873425  0.5000000000000000
  0.8520178879352993  0.7037772111409824  0.5000000000000000
  0.9630588638026286  0.7037516541409512  0.5000000000000000
  0.0740915604776930  0.8147973317497915  0.5000000000000000
  0.1851502190205365  0.8147973317497702  0.5000000000000000
  0.2962285345091262  0.8148210018372458  0.5000000000000000
  0.4073328116621536  0.8148523207381291  0.5000000000000000
  0.5184775308268417  0.8149105371862391  0.5000000000000000
  0.6296871445337542  0.8149298413190568  0.5000000000000000
  0.7408774541122621  0.8149105371862035  0.5000000000000000
  0.8519639568258630  0.8148523207380580  0.5000000000000000
  0.9630369150809488  0.8148210018371321  0.5000000000000000
  0.0740678903926121  0.9258519771512821  0.5000000000000000
  0.1851372380890913  0.9258300284297302  0.5000000000000000
  0.2962285345115349  0.9258519771512466  0.5000000000000000
  0.4073409441615295  0.9258926943216342  0.5000000000000000
  0.5184700609809649  0.9259354816279864  0.5000000000000000
  0.6296218652004076  0.9259579610749650  0.5000000000000000
  0.7407805436274363  0.9259579610749508  0.5000000000000000
  0.8519098683998790  0.9259354816279296  0.5000000000000000
  0.9629961979085148  0.9258926943215419  0.5000000000000000
