B  N 
 1.0000000000000000
    22.5450235128999985    0.0000000000031860    0.0000000000000000
   -11.2725117560000001   19.5245630914000010    0.0000000000000000
     0.0000000000000000    0.0000000000000000   18.0000000000000000
 B   N  
  80  81
Direct
  0.0000000000000000  0.0000000000000000  0.5000000000000000
  0.1111111111091398  0.0000000000000000  0.5000000000000000
  0.2222222222227151 -0.0000000000000000  0.5000000000000000
  0.3333333333318548  0.0000000000000000  0.5000000000000000
  0.4444444444454301 -0.0000000000000000  0.5000000000000000
  0.5555555555545699  0.0000000000000000  0.5000000000000000
  0.6666666666681452 -0.0000000000000000  0.5000000000000000
  0.7777777777772850  0.0000000000000000  0.5000000000000000
  0.8888888888908603 -0.0000000000000000  0.5000000000000000
 -0.0000000000001525  0.1111111111088348  0.5000000000000000
  0.1111111111089782  0.1111111111088166  0.5000000000000000
  0.2222222222225445  0.1111111111087985  0.5000000000000000
  0.3333333333316751  0.1111111111087804  0.5000000000000000
  0.4444444444452414  0.1111111111087622  0.5000000000000000
  0.5555555555543721  0.1111111111087441  0.5000000000000000
  0.6666666666679384  0.1111111111087260  0.5000000000000000
  0.7777777777770691  0.1111111111087079  0.5000000000000000
  0.8888888888906352  0.1111111111086897  0.5000000000000000
  0.0000000000022559  0.2222222222227913  0.5000000000000000
  0.1111111111114681  0.2222222222227732  0.5000000000000000
  0.2222222222205173  0.2222222222227550  0.5000000000000000
  0.3333333333340835  0.2222222222227369  0.5000000000000000
  0.4444444444432142  0.2222222222227188  0.5000000000000000
  0.5555555555567805  0.2222222222227007  0.5000000000000000
  0.6666666666659112  0.2222222222226825  0.5000000000000000
  0.7777777777794774  0.2222222222226644  0.5000000000000000
  0.8888888888886083  0.2222222222226463  0.5000000000000000
 -0.0000000000023321  0.3333333333316261  0.5000000000000000
  0.1111111111112341  0.3333333333316080  0.5000000000000000
  0.2222222222203648  0.3333333333315898  0.5000000000000000
  0.3333333333339310  0.3333333333315717  0.5000000000000000
  0.4444444444430617  0.3333333333315536  0.5000000000000000
  0.5555555555566281  0.3333333333315354  0.5000000000000000
  0.6666666666657587  0.3333333333315173  0.5000000000000000
  0.7777777777793251  0.3333333333314992  0.5000000000000000
  0.8888888888884555  0.3333333333314810  0.5000000000000000
  0.0000000000000762  0.4444444444455826  0.5000000000000000
  0.1111111111136425  0.4444444444455645  0.5000000000000000
  0.2222222222229363  0.4444444444455463  0.5000000000000000
  0.3333333333363395  0.4444444444455282  0.5000000000000000
  0.5555555555546009  0.4444444444454919  0.5000000000000000
  0.6666666666681671  0.4444444444454738  0.5000000000000000
  0.7777777777772977  0.4444444444454557  0.5000000000000000
  0.8888888888908640  0.4444444444454375  0.5000000000000000
 -0.0000000000000762  0.5555555555544174  0.5000000000000000
  0.1111111111090544  0.5555555555543992  0.5000000000000000
  0.2222222222226207  0.5555555555543811  0.5000000000000000
  0.3333333333317514  0.5555555555543630  0.5000000000000000
  0.4444444444453176  0.5555555555543448  0.5000000000000000
  0.5555555555544484  0.5555555555543267  0.5000000000000000
  0.6666666666680146  0.5555555555543086  0.5000000000000000
  0.7777777777771452  0.5555555555542904  0.5000000000000000
  0.8888888888907115  0.5555555555542723  0.5000000000000000
  0.0000000000023322  0.6666666666683739  0.5000000000000000
  0.1111111111114629  0.6666666666683558  0.5000000000000000
  0.2222222222250291  0.6666666666683376  0.5000000000000000
  0.3333333333344045  0.6666666666683195  0.5000000000000000
  0.4444444444477260  0.6666666666683014  0.5000000000000000
  0.5555555555568567  0.6666666666682832  0.5000000000000000
  0.6666666666659875  0.6666666666682651  0.5000000000000000
  0.7777777777795537  0.6666666666682470  0.5000000000000000
  0.8888888888886843  0.6666666666682289  0.5000000000000000
 -0.0000000000022559  0.7777777777772087  0.5000000000000000
  0.1111111111113104  0.7777777777771906  0.5000000000000000
  0.2222222222204410  0.7777777777771724  0.5000000000000000
  0.3333333333340073  0.7777777777771543  0.5000000000000000
  0.4444444444431380  0.7777777777771362  0.5000000000000000
  0.5555555555567042  0.7777777777771180  0.5000000000000000
  0.6666666666658350  0.7777777777770999  0.5000000000000000
  0.7777777777794012  0.7777777777770818  0.5000000000000000
  0.8888888888885320  0.7777777777770636  0.5000000000000000
  0.0000000000001525  0.8888888888911652  0.5000000000000000
  0.1111111111137187  0.8888888888911470  0.5000000000000000
  0.2222222222228495  0.8888888888911289  0.5000000000000000
  0.3333333333364157  0.8888888888911108  0.5000000000000000
  0.4444444444458726  0.8888888888910926  0.5000000000000000
  0.5555555555591126  0.8888888888910744  0.5000000000000000
  0.6666666666682434  0.8888888888910564  0.5000000000000000
  0.7777777777818096  0.8888888888910382  0.5000000000000000
  0.8888888888909402  0.8888888888910200  0.5000000000000000
  0.0740740762911879  0.0370370381613447  0.5000000000000000
  0.1851851874003186  0.0370370381613266  0.5000000000000000
  0.2962962985094493  0.0370370381613084  0.5000000000000000
  0.4074074096230155  0.0370370381612903  0.5000000000000000
  0.5185185207321462  0.0370370381612722  0.5000000000000000
  0.6296296318457124  0.0370370381612540  0.5000000000000000
  0.7407407429548432  0.0370370381612359  0.5000000000000000
  0.8518518540684095  0.0370370381612178  0.5000000000000000
  0.9629629651775401  0.0370370381611996  0.5000000000000000
  0.0740740762903844  0.1481481492753012  0.5000000000000000
  0.1851851874027270  0.1481481492752831  0.5000000000000000
  0.2962962985118576  0.1481481492752650  0.5000000000000000
  0.4074074096254239  0.1481481492752468  0.5000000000000000
  0.5185185207345546  0.1481481492752287  0.5000000000000000
  0.6296296318481208  0.1481481492752106  0.5000000000000000
  0.7407407429572515  0.1481481492751924  0.5000000000000000
  0.8518518540708178  0.1481481492751743  0.5000000000000000
  0.9629629651799486  0.1481481492751562  0.5000000000000000
  0.0740740762890082  0.2592592603841360  0.5000000000000000
  0.1851851874025745  0.2592592603841179  0.5000000000000000
  0.2962962985117051  0.2592592603840997  0.5000000000000000
  0.4074074096208359  0.2592592603840816  0.5000000000000000
  0.5185185207344021  0.2592592603840635  0.5000000000000000
  0.6296296318435327  0.2592592603840453  0.5000000000000000
  0.7407407429570991  0.2592592603840272  0.5000000000000000
  0.8518518540662298  0.2592592603840091  0.5000000000000000
  0.9629629651797961  0.2592592603839910  0.5000000000000000
  0.0740740762914166  0.3703703714980925  0.5000000000000000
  0.1851851874018526  0.3703703714980744  0.5000000000000000
  0.2962962985141135  0.3703703714980562  0.5000000000000000
  0.4074074096232443  0.3703703714980381  0.5000000000000000
  0.5185185207368106  0.3703703714980200  0.5000000000000000
  0.6296296318459412  0.3703703714980019  0.5000000000000000
  0.7407407429595074  0.3703703714979837  0.5000000000000000
  0.8518518540686381  0.3703703714979656  0.5000000000000000
  0.9629629651822045  0.3703703714979475  0.5000000000000000
  0.0740740762912641  0.4814814826069273  0.5000000000000000
  0.1851851874003948  0.4814814826069092  0.5000000000000000
  0.2962962985139611  0.4814814826068910  0.5000000000000000
  0.4074074096230917  0.4814814826068729  0.5000000000000000
  0.5185185207322225  0.4814814826068548  0.5000000000000000
  0.6296296318457887  0.4814814826068367  0.5000000000000000
  0.7407407429549194  0.4814814826068185  0.5000000000000000
  0.8518518540684857  0.4814814826068004  0.5000000000000000
  0.9629629651776164  0.4814814826067823  0.5000000000000000
  0.0740740762866761  0.5925925937157621  0.5000000000000000
  0.1851851874002423  0.5925925937157439  0.5000000000000000
  0.2962962985107598  0.5925925937157258  0.5000000000000000
  0.4074074096229393  0.5925925937157077  0.5000000000000000
  0.5185185207320699  0.5925925937156895  0.5000000000000000
  0.6296296318456363  0.5925925937156714  0.5000000000000000
  0.7407407429547670  0.5925925937156533  0.5000000000000000
  0.8518518540683333  0.5925925937156352  0.5000000000000000
  0.9629629651774638  0.5925925937156170  0.5000000000000000
  0.0740740762890844  0.7037037048297186  0.5000000000000000
  0.1851851874026507  0.7037037048297005  0.5000000000000000
  0.2962962985117814  0.7037037048296824  0.5000000000000000
  0.4074074096253476  0.7037037048296642  0.5000000000000000
  0.5185185207344783  0.7037037048296461  0.5000000000000000
  0.6296296318480445  0.7037037048296280  0.5000000000000000
  0.7407407429571752  0.7037037048296099  0.5000000000000000
  0.8518518540663060  0.7037037048295917  0.5000000000000000
  0.9629629651798723  0.7037037048295736  0.5000000000000000
  0.0740740762889319  0.8148148159385534  0.5000000000000000
  0.1851851873980627  0.8148148159385353  0.5000000000000000
  0.2962962985116289  0.8148148159385171  0.5000000000000000
  0.4074074096222279  0.8148148159384990  0.5000000000000000
  0.5185185207343259  0.8148148159384809  0.5000000000000000
  0.6296296318434565  0.8148148159384627  0.5000000000000000
  0.7407407429570229  0.8148148159384446  0.5000000000000000
  0.8518518540661536  0.8148148159384265  0.5000000000000000
  0.9629629651797199  0.8148148159384084  0.5000000000000000
  0.0740740762913404  0.9259259270525100  0.5000000000000000
  0.1851851874004710  0.9259259270524918  0.5000000000000000
  0.2962962985140373  0.9259259270524736  0.5000000000000000
  0.4074074096231680  0.9259259270524556  0.5000000000000000
  0.5185185207367343  0.9259259270524374  0.5000000000000000
  0.6296296318458651  0.9259259270524194  0.5000000000000000
  0.7407407429594312  0.9259259270524012  0.5000000000000000
  0.8518518540685618  0.9259259270523830  0.5000000000000000
  0.9629629651776928  0.9259259270523650  0.5000000000000000
